(set-info :smt-lib-version 2.6)
(set-logic QF_UF)
(set-info :source |
Generated by: David Deharbe, CLEARSY
Generated on: 2019-09-06
Generator: bxml;pog;pog2smt (Atelier B)
Application: B-method
Target solver: CVC4, Z3
|)
(set-info :license "https://creativecommons.org/licenses/by-nc/4.0/")
(set-info :category "industrial")
(set-info :status unknown)
; Prelude
(declare-sort U 0)
(declare-fun |*i| (U U) U)
(declare-fun |+i| (U U) U)
(declare-fun |-i| (U U) U)
(declare-fun idiv (U U) U)
(declare-fun |*r| (U U) U)
(declare-fun |+r| (U U) U)
(declare-fun |-r| (U U) U)
(declare-fun rdiv (U U) U)
(declare-fun modulo (U U) U)
(declare-fun |<i| (U U) Bool)
(declare-fun |<=i| (U U) Bool)
(declare-fun |>i| (U U) Bool)
(declare-fun |>=i| (U U) Bool)
(declare-fun |<r| (U U) Bool)
(declare-fun |<=r| (U U) Bool)
(declare-fun |>r| (U U) Bool)
(declare-fun |>=r| (U U) Bool)
(declare-fun iuminus (U) U)
(declare-fun ruminus (U) U)
(declare-fun TRUE () U)
(declare-fun FALSE () U)
(assert (not (= TRUE FALSE)))
(declare-fun empty () U)
(declare-fun bool (Bool) U)
(declare-fun BOOL () U)
(declare-fun INT () U)
(declare-fun INTEGER () U)
(declare-fun NAT () U)
(declare-fun NAT1 () U)
(declare-fun NATURAL () U)
(declare-fun NATURAL1 () U)
(declare-fun FLOAT () U)
(declare-fun MaxInt () U)
(declare-fun MinInt () U)
(declare-fun |STRING| () U)
(declare-fun REAL () U)
(declare-fun set_prod (U U) U)
(declare-fun set_diff (U U) U)
(declare-fun mapplet (U U) U)
(declare-fun |**i| (U U) U)
(declare-fun |**r| (U U) U)
(declare-fun |+->| (U U) U)
(declare-fun |+->>| (U U) U)
(declare-fun |-->| (U U) U)
(declare-fun |-->>| (U U) U)
(declare-fun |<->| (U U) U)
(declare-fun |>+>| (U U) U)
(declare-fun |>->| (U U) U)
(declare-fun |>+>>| (U U) U)
(declare-fun |>->>| (U U) U)
(declare-fun |->| (U U) U)
(declare-fun interval (U U) U)
(declare-fun composition (U U) U)
(declare-fun binary_inter (U U) U)
(declare-fun restriction_head (U U) U)
(declare-fun semicolon (U U) U)
(declare-fun |<+| (U U) U)
(declare-fun |<-| (U U) U)
(declare-fun domain_subtraction (U U) U)
(declare-fun domain_restriction (U U) U)
(declare-fun |><| (U U) U)
(declare-fun parallel_product (U U) U)
(declare-fun binary_union (U U) U)
(declare-fun restriction_tail (U U) U)
(declare-fun concatenate (U U) U)
(declare-fun range_restriction (U U) U)
(declare-fun range_subtraction (U U) U)
(declare-fun image (U U) U)
(declare-fun apply (U U) U)
(declare-fun prj1 (U U) U)
(declare-fun prj2 (U U) U)
(declare-fun iterate (U U) U)
(declare-fun |const| (U U) U)
(declare-fun rank (U U) U)
(declare-fun father (U U) U)
(declare-fun subtree (U U) U)
(declare-fun arity (U U) U)
(declare-fun |+f| (U U) U)
(declare-fun |-f| (U U) U)
(declare-fun |*f| (U U) U)
(declare-fun |fdiv| (U U) U)
(declare-fun tbin (U U U) U)
(declare-fun son (U U U) U)
(declare-fun mem (U U) Bool)
(declare-fun subset (U U) Bool)
(declare-fun strict_subset (U U) Bool)
(declare-fun |<=f| (U U) Bool)
(declare-fun |<f| (U U) Bool)
(declare-fun |>=f| (U U) Bool)
(declare-fun |>f| (U U) Bool)
(declare-fun imax (U) U)
(declare-fun imin (U) U)
(declare-fun rmax (U) U)
(declare-fun rmin (U) U)
(declare-fun card (U) U)
(declare-fun dom (U) U)
(declare-fun ran (U) U)
(declare-fun POW (U) U)
(declare-fun POW1 (U) U)
(declare-fun FIN (U) U)
(declare-fun FIN1 (U) U)
(declare-fun union (U) U)
(declare-fun inter (U) U)
(declare-fun seq (U) U)
(declare-fun seq1 (U) U)
(declare-fun iseq (U) U)
(declare-fun iseq1 (U) U)
(declare-fun inverse (U) U)
(declare-fun size (U) U)
(declare-fun perm (U) U)
(declare-fun first (U) U)
(declare-fun last (U) U)
(declare-fun id (U) U)
(declare-fun closure (U) U)
(declare-fun closure1 (U) U)
(declare-fun tail (U) U)
(declare-fun front (U) U)
(declare-fun reverse (U) U)
(declare-fun rev (U) U)
(declare-fun conc (U) U)
(declare-fun succ (U) U)
(declare-fun pred (U) U)
(declare-fun rel (U) U)
(declare-fun fnc (U) U)
(declare-fun real (U) U)
(declare-fun floor (U) U)
(declare-fun ceiling (U) U)
(declare-fun tree (U) U)
(declare-fun btree (U) U)
(declare-fun top (U) U)
(declare-fun sons (U) U)
(declare-fun prefix (U) U)
(declare-fun postfix (U) U)
(declare-fun sizet (U) U)
(declare-fun mirror (U) U)
(declare-fun left (U) U)
(declare-fun right (U) U)
(declare-fun infix (U) U)
(declare-fun ubin (U) U)
(declare-fun SEQ (U) U)
(declare-fun SET (U) U)
; Opaque formulas
(declare-fun e0 () U)
(declare-fun e13 () U)
(declare-fun e34 () U)
(declare-fun e35 () U)
(declare-fun g_s0_1 () U)
(declare-fun g_s1_2 () U)
(declare-fun g_s11_12 () U)
(declare-fun g_s12_14 () U)
(declare-fun g_s13_15 () U)
(declare-fun g_s14_16 () U)
(declare-fun g_s15_17 () U)
(declare-fun g_s16_18 () U)
(declare-fun g_s17_19 () U)
(declare-fun g_s18_20 () U)
(declare-fun g_s19_21 () U)
(declare-fun g_s2_3 () U)
(declare-fun g_s20_22 () U)
(declare-fun g_s21_23 () U)
(declare-fun g_s22_24 () U)
(declare-fun g_s23_25 () U)
(declare-fun g_s24_26 () U)
(declare-fun g_s25_27 () U)
(declare-fun g_s26_28 () U)
(declare-fun g_s27_29 () U)
(declare-fun g_s28_30 () U)
(declare-fun g_s29_31 () U)
(declare-fun g_s3_4 () U)
(declare-fun g_s30_32 () U)
(declare-fun g_s31_33 () U)
(declare-fun g_s32_36 () U)
(declare-fun g_s33_37 () U)
(declare-fun g_s34_38 () U)
(declare-fun g_s35$1_39 () U)
(declare-fun g_s36$1_40 () U)
(declare-fun g_s4_5 () U)
(declare-fun g_s47_46 () U)
(declare-fun g_s47$1_47 () U)
(declare-fun g_s48_48 () U)
(declare-fun g_s48$1_49 () U)
(declare-fun g_s49_50 () U)
(declare-fun g_s5_6 () U)
(declare-fun g_s50_51 () U)
(declare-fun g_s51_52 () U)
(declare-fun g_s55_53 () U)
(declare-fun g_s55$1_54 () U)
(declare-fun g_s56_55 () U)
(declare-fun g_s57_56 () U)
(declare-fun g_s58_57 () U)
(declare-fun g_s59_58 () U)
(declare-fun g_s6_7 () U)
(declare-fun g_s61_59 () U)
(declare-fun g_s61$1_60 () U)
(declare-fun g_s7_8 () U)
(declare-fun g_s8_9 () U)
(declare-fun e44 () U)
(declare-fun e45 () U)
(declare-fun e11 () U)
(declare-fun e10 () U)
(declare-fun e43 () U)
(declare-fun e41 () U)
(declare-fun e42 () U)
; Defines
(define-fun |def_B definitions| () Bool (and (= NAT (interval e0 MaxInt)) (= INT (interval MinInt MaxInt))))
(define-fun |def_ctx| () Bool (and (not (= g_s0_1 empty)) (not (= g_s1_2 empty)) (not (= g_s2_3 empty)) (not (= g_s3_4 empty)) (not (= g_s4_5 empty)) (not (= g_s5_6 empty)) (not (= g_s6_7 empty)) (not (= g_s7_8 empty)) (mem g_s8_9 (|-->| (set_prod INTEGER NATURAL) INTEGER)) (= g_s8_9 (binary_union e11 e10)) (mem g_s11_12 (|-->| BOOL NAT)) (= g_s11_12 (SET (mapplet (mapplet FALSE e0) (mapplet TRUE e13)))) (= g_s12_14 INT) (= g_s13_15 NAT) (= g_s14_16 NAT1) (subset g_s14_16 g_s13_15) (subset g_s13_15 g_s12_14) (= g_s15_17 INT) (= g_s16_18 NAT) (subset g_s16_18 g_s15_17) (mem g_s17_19 g_s12_14) (mem g_s17_19 g_s13_15) (not (mem g_s17_19 g_s14_16)) (mem g_s18_20 g_s12_14) (not (mem g_s18_20 g_s13_15)) (mem g_s19_21 g_s15_17) (mem g_s19_21 g_s16_18) (mem g_s20_22 g_s15_17) (not (mem g_s20_22 g_s16_18)) (= g_s21_23 INT) (= g_s22_24 INT) (= g_s23_25 NATURAL) (= g_s24_26 NATURAL) (mem g_s25_27 NAT1) (= g_s25_27 MaxInt) (mem g_s26_28 NAT1) (mem g_s27_29 NAT1) (= g_s27_29 MaxInt) (mem g_s28_30 NAT1) (mem g_s29_31 NAT1) (mem g_s30_32 NAT1) (mem g_s31_33 NAT1) (= g_s30_32 e34) (= g_s31_33 e35)))
(define-fun |def_seext| () Bool true)
(define-fun |def_mchcst| () Bool true)
(define-fun |def_aprp| () Bool (and (mem g_s32_36 (|+->| (set_prod (set_prod g_s13_15 g_s16_18) g_s21_23) (set_prod g_s13_15 g_s16_18))) (mem g_s33_37 (|<->| (set_prod g_s13_15 g_s16_18) (set_prod g_s13_15 g_s16_18))) (mem g_s34_38 (|<->| (set_prod g_s13_15 g_s16_18) (set_prod g_s13_15 g_s16_18))) (subset (dom g_s32_36) (set_prod (set_prod g_s13_15 g_s16_18) NAT))))
(define-fun |def_abs| () Bool true)
(define-fun |def_inv| () Bool (and (mem g_s35$1_39 g_s12_14) (mem g_s36$1_40 g_s15_17)))
(define-fun |def_ass| () Bool true)
(define-fun |def_sets| () Bool true)
(define-fun |def_imlprp| () Bool (and (= g_s32_36 (|<+| (|<+| e43 e42) e41)) (= g_s33_37 (rel e44)) (= g_s34_38 (rel e45))))
(define-fun |def_imprp| () Bool true)
(define-fun |def_imext| () Bool true)
; PO group 0 
(push 1)
(assert |def_B definitions|)
(assert |def_ctx|)
(assert |def_imprp|)
; PO 1 in group 0
(push 1)
(assert (not (mem (rel e44) (|<->| (set_prod g_s13_15 g_s16_18) (set_prod g_s13_15 g_s16_18)))))
(check-sat)
(pop 1)
; PO 2 in group 0
(push 1)
(assert (not (mem (rel e45) (|<->| (set_prod g_s13_15 g_s16_18) (set_prod g_s13_15 g_s16_18)))))
(set-info :status unknown)
(check-sat)
(pop 1)
; PO 3 in group 0
(push 1)
(assert (not (mem (|<+| (|<+| e43 e42) e41) (|+->| (set_prod (set_prod g_s13_15 g_s16_18) g_s21_23) (set_prod g_s13_15 g_s16_18)))))
(set-info :status unknown)
(check-sat)
(pop 1)
; PO 4 in group 0
(push 1)
(assert (not (subset (dom (|<+| (|<+| e43 e42) e41)) (set_prod (set_prod g_s13_15 g_s16_18) NAT))))
(set-info :status unknown)
(check-sat)
(pop 1)
(pop 1)
; PO group 1 
(push 1)
(assert |def_B definitions|)
(assert |def_ctx|)
(assert |def_mchcst|)
(assert |def_aprp|)
(assert |def_imlprp|)
(assert |def_imprp|)
(assert |def_imext|)
(assert |def_seext|)
(assert |def_abs|)
(assert |def_inv|)
(assert |def_ass|)
(assert (= g_s47$1_47 g_s47_46))
(assert (= g_s48$1_49 g_s48_48))
(define-fun lh_1 () Bool (mem g_s49_50 g_s12_14))
(define-fun lh_2 () Bool (mem g_s49_50 g_s13_15))
(define-fun lh_3 () Bool (mem g_s50_51 g_s15_17))
(define-fun lh_4 () Bool (mem g_s50_51 g_s16_18))
(define-fun lh_5 () Bool (mem g_s51_52 g_s21_23))
(define-fun lh_6 () Bool (|>=i| g_s51_52 e0))
(define-fun lh_7 () Bool (|>=i| (|-i| g_s25_27 g_s49_50) g_s51_52))
; PO 1 in group 1
(push 1)
(assert (not (=> (and lh_1 lh_2 lh_3 lh_4 lh_5 lh_6) (mem (|-i| g_s25_27 g_s49_50) INT))))
(set-info :status unknown)
(check-sat)
(pop 1)
; PO 2 in group 1
(push 1)
(assert (not (=> (and lh_1 lh_2 lh_3 lh_4 lh_5 lh_6 lh_7) (mem (|+i| g_s49_50 g_s51_52) INT))))
(set-info :status unknown)
(check-sat)
(pop 1)
; PO 3 in group 1
(push 1)
(assert (not (=> (and lh_1 lh_2 lh_3 lh_4 lh_5 lh_6 lh_7) (mem (|+i| g_s49_50 g_s51_52) g_s13_15))))
(set-info :status unknown)
(check-sat)
(pop 1)
; PO 4 in group 1
(push 1)
(assert (not (=> (and lh_1 lh_2 lh_3 lh_4 lh_5 lh_6 lh_7) (mem (|+i| g_s49_50 g_s51_52) g_s12_14))))
(set-info :status unknown)
(check-sat)
(pop 1)
; PO 5 in group 1
(push 1)
(assert (not (=> (and lh_1 lh_2 lh_3 lh_4 lh_5 lh_6 lh_7) (= (mapplet (|+i| g_s49_50 g_s51_52) g_s50_51) (apply g_s32_36 (mapplet (mapplet g_s49_50 g_s50_51) g_s51_52))))))
(set-info :status unknown)
(check-sat)
(pop 1)
(pop 1)
; PO group 2 
(push 1)
(assert |def_B definitions|)
(assert |def_ctx|)
(assert |def_mchcst|)
(assert |def_aprp|)
(assert |def_imlprp|)
(assert |def_imprp|)
(assert |def_imext|)
(assert |def_seext|)
(assert |def_abs|)
(assert |def_inv|)
(assert |def_ass|)
(assert (= g_s55$1_54 g_s55_53))
(define-fun lh_1 () Bool (mem g_s56_55 g_s12_14))
(define-fun lh_2 () Bool (mem g_s56_55 g_s13_15))
(define-fun lh_3 () Bool (mem g_s57_56 g_s15_17))
(define-fun lh_4 () Bool (mem g_s57_56 g_s16_18))
(define-fun lh_5 () Bool (mem g_s58_57 g_s12_14))
(define-fun lh_6 () Bool (mem g_s58_57 g_s13_15))
(define-fun lh_7 () Bool (mem g_s59_58 g_s15_17))
(define-fun lh_8 () Bool (mem g_s59_58 g_s16_18))
; PO 1 in group 2
(assert (not (=> (and lh_1 lh_2 lh_3 lh_4 lh_5 lh_6 lh_7 lh_8) (= (bool (or (= (bool (|<i| g_s57_56 g_s59_58)) TRUE) (= (bool (and (= (bool (= g_s57_56 g_s59_58)) TRUE) (= (bool (|<i| g_s56_55 g_s58_57)) TRUE))) TRUE))) (bool (mem (mapplet (mapplet g_s56_55 g_s57_56) (mapplet g_s58_57 g_s59_58)) g_s33_37))))))
(set-info :status unknown)
(check-sat)
(pop 1)
; PO group 3 
(push 1)
(assert |def_B definitions|)
(assert |def_ctx|)
(assert |def_mchcst|)
(assert |def_aprp|)
(assert |def_imlprp|)
(assert |def_imprp|)
(assert |def_imext|)
(assert |def_seext|)
(assert |def_abs|)
(assert |def_inv|)
(assert |def_ass|)
(assert (= g_s61$1_60 g_s61_59))
(define-fun lh_1 () Bool (mem g_s56_55 g_s12_14))
(define-fun lh_2 () Bool (mem g_s56_55 g_s13_15))
(define-fun lh_3 () Bool (mem g_s57_56 g_s15_17))
(define-fun lh_4 () Bool (mem g_s57_56 g_s16_18))
(define-fun lh_5 () Bool (mem g_s58_57 g_s12_14))
(define-fun lh_6 () Bool (mem g_s58_57 g_s13_15))
(define-fun lh_7 () Bool (mem g_s59_58 g_s15_17))
(define-fun lh_8 () Bool (mem g_s59_58 g_s16_18))
; PO 1 in group 3
(assert (not (=> (and lh_1 lh_2 lh_3 lh_4 lh_5 lh_6 lh_7 lh_8) (= (bool (or (= (bool (|<i| g_s57_56 g_s59_58)) TRUE) (= (bool (and (= (bool (= g_s57_56 g_s59_58)) TRUE) (= (bool (|<=i| g_s56_55 g_s58_57)) TRUE))) TRUE))) (bool (mem (mapplet (mapplet g_s56_55 g_s57_56) (mapplet g_s58_57 g_s59_58)) g_s34_38))))))
(set-info :status unknown)
(check-sat)
(pop 1)
(exit)